experiment/data/hgs-res/Vrp-Set-A-n32/Vrp-Set-A-n32-hgs/0.hgs1.vrp
NAME : 0
COMMENT : CVRP Instance
TYPE : CVRP
DIMENSION : 32
EDGE_WEIGHT_TYPE : EUC_2D
CAPACITY : 100
NODE_COORD_SECTION
1	82.0	76.0
2	96.0	44.0
3	50.0	5.0
4	49.0	8.0
5	13.0	7.0
6	29.0	89.0
7	58.0	30.0
8	84.0	39.0
9	14.0	24.0
10	2.0	39.0
11	3.0	82.0
12	5.0	10.0
13	98.0	52.0
14	84.0	25.0
15	61.0	59.0
16	1.0	65.0
17	88.0	51.0
18	91.0	2.0
19	19.0	32.0
20	93.0	3.0
21	50.0	93.0
22	98.0	14.0
23	5.0	42.0
24	42.0	9.0
25	61.0	62.0
26	9.0	97.0
27	80.0	55.0
28	57.0	69.0
29	23.0	15.0
30	20.0	70.0
31	85.0	60.0
32	98.0	5.0
DEMAND_SECTION
1	0
2	19
3	21
4	6
5	19
6	7
7	12
8	16
9	6
10	16
11	8
12	14
13	21
14	16
15	3
16	22
17	18
18	19
19	1
20	24
21	8
22	12
23	4
24	8
25	24
26	24
27	2
28	20
29	15
30	2
31	14
32	9
DEPOT_SECTION
1
-1
EOF
