experiment/data/hgs-res/Vrp-Set-A-n32/Vrp-Set-A-n32-hgs/0.hgs1.tour
Route #1: 18 8 9 22 15 29 10 25 5 20
Route #2: 27 24
Route #3: 6 3 2 23 4 11 28 14
Route #4: 26 7 13 17 19 31 21
Route #5: 30 16 1 12
Cost 787.082
